sing20210723.12
TTAA 73121 48698
99006 31257 30005 00081 29856 22011 92774 23203 21008
85508 18006 22019 70146 08838 31011 50587 05550 11504
40759 14961 07509 30970 30927 09527 25097 39138 07035
20245 51942 05556 15425 67332 06077 10663 76760 12009
88999
77136 06582 41548=
TTCC 73127 48698
70873 70968 31010
88993 76960 12008
77999=
TTDD 7312/ 48698
11993 76960 22920 70765 33827 73564 44734 69968 55702
70968 66609 68571 77576 70370 88551 66772
21212 11944 24020 22913 27524 33841 28544 44767 27025
55693 31010 66657 29026 77654 29026 88634 31517 99610
29024 11551 26517=
